param n1 := 3;
param n2 := 3;
param ADV := 1;
param MM := 80000;
param p
1 1.0;

param Reward
 
[1, *, *]: 1 2 3 := 
1 8.0 -1.0 -10.0 
2 -5.0 3.0 -10.0 
3 -5.0 -1.0 5.0 ;
 
param AdvReward
 
[1, *, *]: 1 2 3 := 
1 -4.0 10.0 10.0 
2 3.0 -1.0 10.0 
3 3.0 10.0 -6.0 ;
 
